proyfinal/src/viki/013/experimentInOfficeAgust.take6.output/243e730c-c5c7-4d6e-8d90-dba13ae3358e.als.dat
{'cnf.clauses': '118081',
 'cnf.totvars': '69608',
 'conflict literals': '4',
 'conflicts': '4',
 'decisions': '551',
 'memused.mb': '14.76',
 'outcome': 'UNSAT',
 'propagations': '19894',
 'restarts': '1',
 'solver.msecs': 37,
 'task.msecs': 84}
