proyfinal/src/viki/013/experimentInOfficeAgust.take6.output/243e730c-c5c7-4d6e-8d90-dba13ae3358e.als.out
Reading from standard input... Use '--help' for help.
============================[ Problem Statistics ]=============================
|                                                                             |
|  Number of variables:         69608                                         |
|  Number of clauses:          118081                                         |
|  Parse time:                   0.03 s                                       |
|                                                                             |
============================[ Search Statistics ]==============================
| Conflicts |          ORIGINAL         |          LEARNT          | Progress |
|           |    Vars  Clauses Literals |    Limit  Clauses Lit/Cl |          |
===============================================================================
===============================================================================
restarts              : 1
conflicts             : 4              (108 /sec)
decisions             : 551            (0.00 % random) (14835 /sec)
propagations          : 19894          (535620 /sec)
conflict literals     : 4              (0.00 % deleted)
Memory used           : 14.76 MB
CPU time              : 0.037142 s

UNSATISFIABLE
